NAME : y-35_t.-368.tour
COMMENT : Length = -368
COMMENT : Found by LKH [Keld Helsgaun] Sun Apr 13 17:05:01 2025
TYPE : TOUR
DIMENSION : 35
TOUR_SECTION
1
2
23
15
30
21
31
16
4
14
18
6
12
34
25
24
19
10
27
17
9
26
20
22
32
5
8
29
28
7
35
33
3
11
13
-1
EOF
